problems/VanDerWaerdenNumbers/VanDerWaerden-models/noch/O2/lingeling/model_4-k3l4n54-solution000001.solution
language Essence 1.3

letting p be
        partition({1, 3, 4, 5, 11, 16, 17, 19, 20, 21, 32, 35, 36, 39, 41, 42, 43, 46, 49},
                  {2, 7, 9, 10, 12, 14, 22, 23, 26, 28, 29, 31, 33, 34, 47, 48, 50, 51, 53, 54},
                  {6, 8, 13, 15, 18, 24, 25, 27, 30, 37, 38, 40, 44, 45, 52})
